Resources = {R1, R2, R3, R4, R5, R6, R7, R8, R9, R10, R11, R12};

Activities = {T, S, W, o, b};

slots = 56;

fixed =
fixed = [| R1: None, None, None, None, None, None, None, None, None, None, None, None, <>, <>, <>, <>, <>, <>, <>, <>, A(b), <>, <>, <>, <>, <>, <>, <>, A(b), A(b)]; // array too long to display, dimensions: (661)


requirements =
requirements = [| T: 0, 0, 0, 0, 0, 0, 1, 1, 1, 1, 1, 2, 2, 4, 4, 5, 5, 5, 5, 4, 3, 3, 3, 3, 3, 4, 4, 2, 1, 1]; // array too long to display, dimensions: (276)


activity_run_cost = array2d(Activities, SlotsAndZero,
activity_run_cost = [| T: 0, 200, 100, 2, 0, 0, 0, 100, 200, 300, 400, 500, 600, 700, 800, 900, 1000, 1100, 1200, 1300, 1400, 1500, 1600, 1700, 1800, 1900, 2000, 2100, 2200, 2200] // array too long to display, dimensions: (281)
);

activity_frequency_cost = array2d(Activities, SlotsAndZero,
activity_frequency_cost = [| T: 0, 60, 0, 0, 0, 6, 8, 10, 12, 14, 16, 18, 20, 22, 24, 26, 28, 30, 32, 34, 36, 38, 40, 42, 44, 46, 48, 50, 52, 52] // array too long to display, dimensions: (281)
);

